984924
157,120,76,221,40,127,140,23,65,215,99,52,91,53,55,17,174,98,104,201,189,218,105,179,102,186,11,223,32,128,145,87,227,152,216,185,149,170,141,169,108,89,3,20,202,37,5,103,81,148,220,92,16,46,63,4,67,8,100,204,74,214,27,49,77,54,150,61,101,168,39,80,129,26,154,111,132,34,86,93,107,228,35,6,19,143,25,90,95,115,165,182,88,33,195,183,160,106,191,36,178,21,116,62,71,209,0,15,207,22,158,184,59,151,50,225,68,198,177,30,42,156,82,73,38,206,66,70,139,48,126,146,162,117,161,134,31,188,2,137,96,193,164,119,7,109,173,163,153,64,13,200,197,14,29,12,175,219,43,222,110,133,224,47,18,226,124,213,45,196,142,10,57,155,210,144,136,9,199,28,56,75,138,58,212,51,79,122,217,208,72,41,112,97,159,121,176,190,125,113,192,94,78,166,84,180,205,118,69,85,83,194,135,172,123,187,24,60,181,130,147,131,1,114,203,171,167,229,44,211
